wcsp 50 3 251 512409557603043100
3 3 3 3 3 3 3 3 3 3 3 3 3 3 3 3 3 3 3 3 3 3 3 3 3 3 3 3 3 3 3 3 3 3 3 3 3 3 3 3 3 3 3 3 3 3 3 3 3 3
2 20 25 0 9
0 0 0
0 1 1
0 2 0
1 0 2
1 1 3
1 2 2
2 0 0
2 1 1
2 2 0
2 36 37 0 9
0 0 0
0 1 2
0 2 2
1 0 2
1 1 3
1 2 2
2 0 0
2 1 0
2 2 0
2 14 35 0 9
0 0 0
0 1 3
0 2 0
1 0 0
1 1 2
1 2 0
2 0 2
2 1 3
2 2 3
2 23 46 0 9
0 0 0
0 1 2
0 2 2
1 0 0
1 1 1
1 2 2
2 0 1
2 1 0
2 2 0
2 3 14 0 9
0 0 0
0 1 1
0 2 0
1 0 3
1 1 1
1 2 3
2 0 1
2 1 0
2 2 0
2 0 41 0 9
0 0 2
0 1 0
0 2 0
1 0 0
1 1 3
1 2 0
2 0 2
2 1 3
2 2 1
2 22 29 0 9
0 0 1
0 1 0
0 2 0
1 0 0
1 1 1
1 2 3
2 0 0
2 1 2
2 2 2
2 2 6 0 9
0 0 2
0 1 0
0 2 0
1 0 0
1 1 2
1 2 2
2 0 1
2 1 0
2 2 3
2 26 34 0 9
0 0 0
0 1 0
0 2 3
1 0 0
1 1 3
1 2 3
2 0 0
2 1 3
2 2 3
2 17 35 0 9
0 0 2
0 1 0
0 2 0
1 0 3
1 1 3
1 2 0
2 0 0
2 1 1
2 2 1
2 20 48 0 9
0 0 1
0 1 3
0 2 1
1 0 0
1 1 0
1 2 0
2 0 0
2 1 3
2 2 2
2 2 28 0 9
0 0 3
0 1 2
0 2 3
1 0 0
1 1 2
1 2 0
2 0 0
2 1 2
2 2 0
2 7 25 0 9
0 0 0
0 1 0
0 2 3
1 0 3
1 1 0
1 2 1
2 0 3
2 1 1
2 2 0
2 6 35 0 9
0 0 1
0 1 1
0 2 0
1 0 0
1 1 0
1 2 1
2 0 0
2 1 3
2 2 2
2 27 30 0 9
0 0 0
0 1 0
0 2 0
1 0 2
1 1 1
1 2 2
2 0 2
2 1 2
2 2 0
2 35 42 0 9
0 0 1
0 1 0
0 2 3
1 0 1
1 1 0
1 2 0
2 0 3
2 1 1
2 2 0
2 6 11 0 9
0 0 1
0 1 0
0 2 1
1 0 2
1 1 0
1 2 0
2 0 1
2 1 1
2 2 0
2 4 20 0 9
0 0 0
0 1 2
0 2 0
1 0 1
1 1 3
1 2 3
2 0 0
2 1 0
2 2 3
2 19 49 0 9
0 0 0
0 1 1
0 2 0
1 0 3
1 1 1
1 2 0
2 0 2
2 1 0
2 2 3
2 27 48 0 9
0 0 0
0 1 1
0 2 0
1 0 3
1 1 1
1 2 2
2 0 0
2 1 0
2 2 2
2 32 37 0 9
0 0 2
0 1 1
0 2 0
1 0 3
1 1 1
1 2 2
2 0 0
2 1 0
2 2 0
2 12 28 0 9
0 0 1
0 1 1
0 2 0
1 0 0
1 1 0
1 2 1
2 0 0
2 1 2
2 2 1
2 9 22 0 9
0 0 0
0 1 0
0 2 2
1 0 3
1 1 3
1 2 0
2 0 1
2 1 0
2 2 2
2 0 28 0 9
0 0 1
0 1 0
0 2 0
1 0 3
1 1 3
1 2 2
2 0 0
2 1 0
2 2 2
2 9 42 0 9
0 0 2
0 1 0
0 2 3
1 0 3
1 1 2
1 2 1
2 0 0
2 1 0
2 2 0
2 19 28 0 9
0 0 1
0 1 0
0 2 0
1 0 2
1 1 3
1 2 1
2 0 1
2 1 0
2 2 0
2 9 12 0 9
0 0 0
0 1 2
0 2 1
1 0 2
1 1 0
1 2 1
2 0 1
2 1 0
2 2 0
2 1 36 0 9
0 0 0
0 1 1
0 2 2
1 0 1
1 1 0
1 2 1
2 0 1
2 1 0
2 2 0
2 10 22 0 9
0 0 2
0 1 2
0 2 0
1 0 3
1 1 0
1 2 2
2 0 0
2 1 0
2 2 1
2 37 41 0 9
0 0 0
0 1 1
0 2 0
1 0 3
1 1 1
1 2 0
2 0 2
2 1 2
2 2 0
2 31 38 0 9
0 0 2
0 1 0
0 2 0
1 0 1
1 1 0
1 2 0
2 0 3
2 1 3
2 2 3
2 7 49 0 9
0 0 0
0 1 1
0 2 1
1 0 0
1 1 1
1 2 0
2 0 2
2 1 0
2 2 1
2 24 28 0 9
0 0 0
0 1 0
0 2 3
1 0 0
1 1 3
1 2 1
2 0 0
2 1 3
2 2 3
2 24 44 0 9
0 0 3
0 1 0
0 2 2
1 0 1
1 1 0
1 2 3
2 0 0
2 1 2
2 2 0
2 33 35 0 9
0 0 0
0 1 1
0 2 0
1 0 3
1 1 3
1 2 3
2 0 1
2 1 0
2 2 0
2 4 13 0 9
0 0 1
0 1 3
0 2 1
1 0 0
1 1 3
1 2 3
2 0 0
2 1 0
2 2 0
2 11 49 0 9
0 0 3
0 1 0
0 2 0
1 0 3
1 1 3
1 2 0
2 0 3
2 1 0
2 2 3
2 35 45 0 9
0 0 3
0 1 3
0 2 0
1 0 3
1 1 0
1 2 0
2 0 2
2 1 0
2 2 3
2 9 49 0 9
0 0 3
0 1 2
0 2 0
1 0 0
1 1 2
1 2 0
2 0 2
2 1 3
2 2 0
2 31 39 0 9
0 0 0
0 1 3
0 2 0
1 0 2
1 1 2
1 2 1
2 0 0
2 1 0
2 2 3
2 7 39 0 9
0 0 0
0 1 1
0 2 0
1 0 3
1 1 2
1 2 0
2 0 0
2 1 1
2 2 3
2 4 9 0 9
0 0 0
0 1 0
0 2 1
1 0 1
1 1 0
1 2 2
2 0 1
2 1 0
2 2 1
2 37 39 0 9
0 0 0
0 1 0
0 2 1
1 0 1
1 1 3
1 2 2
2 0 0
2 1 1
2 2 0
2 5 9 0 9
0 0 0
0 1 1
0 2 2
1 0 0
1 1 3
1 2 2
2 0 3
2 1 0
2 2 0
2 0 34 0 9
0 0 2
0 1 2
0 2 3
1 0 0
1 1 0
1 2 0
2 0 3
2 1 3
2 2 0
2 36 41 0 9
0 0 1
0 1 0
0 2 2
1 0 3
1 1 2
1 2 0
2 0 1
2 1 0
2 2 0
2 12 44 0 9
0 0 0
0 1 2
0 2 0
1 0 0
1 1 2
1 2 1
2 0 1
2 1 2
2 2 0
2 13 40 0 9
0 0 0
0 1 0
0 2 3
1 0 2
1 1 1
1 2 3
2 0 3
2 1 0
2 2 0
2 4 16 0 9
0 0 0
0 1 0
0 2 0
1 0 2
1 1 2
1 2 3
2 0 0
2 1 3
2 2 3
2 30 48 0 9
0 0 0
0 1 0
0 2 2
1 0 2
1 1 1
1 2 2
2 0 0
2 1 1
2 2 0
2 12 40 0 9
0 0 1
0 1 0
0 2 0
1 0 1
1 1 3
1 2 0
2 0 0
2 1 2
2 2 1
2 15 22 0 9
0 0 2
0 1 0
0 2 2
1 0 0
1 1 3
1 2 0
2 0 0
2 1 1
2 2 3
2 27 46 0 9
0 0 0
0 1 2
0 2 3
1 0 3
1 1 0
1 2 1
2 0 3
2 1 0
2 2 0
2 37 47 0 9
0 0 3
0 1 0
0 2 1
1 0 3
1 1 0
1 2 0
2 0 2
2 1 2
2 2 0
2 9 23 0 9
0 0 0
0 1 2
0 2 1
1 0 0
1 1 3
1 2 3
2 0 0
2 1 2
2 2 0
2 4 24 0 9
0 0 0
0 1 3
0 2 2
1 0 0
1 1 1
1 2 3
2 0 0
2 1 0
2 2 1
2 9 37 0 9
0 0 2
0 1 0
0 2 1
1 0 2
1 1 2
1 2 3
2 0 0
2 1 0
2 2 0
2 6 20 0 9
0 0 0
0 1 0
0 2 1
1 0 1
1 1 0
1 2 0
2 0 1
2 1 3
2 2 3
2 18 29 0 9
0 0 0
0 1 1
0 2 3
1 0 0
1 1 2
1 2 0
2 0 2
2 1 2
2 2 0
2 4 44 0 9
0 0 3
0 1 3
0 2 3
1 0 3
1 1 0
1 2 0
2 0 0
2 1 3
2 2 0
2 3 28 0 9
0 0 2
0 1 2
0 2 3
1 0 0
1 1 0
1 2 0
2 0 1
2 1 0
2 2 1
2 12 14 0 9
0 0 2
0 1 0
0 2 0
1 0 0
1 1 2
1 2 0
2 0 3
2 1 1
2 2 1
2 3 31 0 9
0 0 0
0 1 0
0 2 2
1 0 2
1 1 2
1 2 0
2 0 0
2 1 3
2 2 2
2 32 41 0 9
0 0 2
0 1 2
0 2 0
1 0 1
1 1 0
1 2 2
2 0 1
2 1 0
2 2 0
2 45 47 0 9
0 0 0
0 1 2
0 2 0
1 0 0
1 1 2
1 2 0
2 0 3
2 1 1
2 2 3
2 7 11 0 9
0 0 0
0 1 3
0 2 0
1 0 0
1 1 0
1 2 2
2 0 1
2 1 3
2 2 1
2 0 13 0 9
0 0 0
0 1 2
0 2 0
1 0 2
1 1 2
1 2 1
2 0 1
2 1 0
2 2 0
2 0 8 0 9
0 0 2
0 1 2
0 2 0
1 0 0
1 1 3
1 2 0
2 0 3
2 1 1
2 2 0
2 44 48 0 9
0 0 3
0 1 0
0 2 0
1 0 1
1 1 1
1 2 2
2 0 2
2 1 0
2 2 0
2 39 43 0 9
0 0 3
0 1 0
0 2 0
1 0 2
1 1 0
1 2 0
2 0 3
2 1 1
2 2 3
2 34 36 0 9
0 0 1
0 1 3
0 2 1
1 0 2
1 1 0
1 2 0
2 0 0
2 1 0
2 2 2
2 6 41 0 9
0 0 2
0 1 0
0 2 1
1 0 2
1 1 2
1 2 0
2 0 0
2 1 0
2 2 1
2 26 48 0 9
0 0 3
0 1 0
0 2 3
1 0 3
1 1 2
1 2 0
2 0 0
2 1 0
2 2 1
2 19 24 0 9
0 0 0
0 1 0
0 2 2
1 0 1
1 1 2
1 2 0
2 0 3
2 1 2
2 2 0
2 7 34 0 9
0 0 3
0 1 0
0 2 1
1 0 0
1 1 3
1 2 0
2 0 1
2 1 0
2 2 3
2 39 40 0 9
0 0 2
0 1 3
0 2 0
1 0 0
1 1 2
1 2 0
2 0 1
2 1 0
2 2 1
2 0 45 0 9
0 0 0
0 1 1
0 2 1
1 0 0
1 1 1
1 2 3
2 0 1
2 1 0
2 2 0
2 8 16 0 9
0 0 1
0 1 1
0 2 1
1 0 0
1 1 0
1 2 0
2 0 2
2 1 3
2 2 0
2 26 43 0 9
0 0 0
0 1 0
0 2 2
1 0 0
1 1 3
1 2 2
2 0 1
2 1 0
2 2 2
2 3 46 0 9
0 0 0
0 1 2
0 2 1
1 0 0
1 1 0
1 2 3
2 0 0
2 1 1
2 2 3
2 32 48 0 9
0 0 2
0 1 2
0 2 0
1 0 2
1 1 3
1 2 0
2 0 0
2 1 0
2 2 3
2 38 49 0 9
0 0 0
0 1 2
0 2 0
1 0 1
1 1 2
1 2 1
2 0 1
2 1 0
2 2 0
2 5 47 0 9
0 0 0
0 1 1
0 2 0
1 0 0
1 1 1
1 2 1
2 0 3
2 1 3
2 2 0
2 8 36 0 9
0 0 0
0 1 0
0 2 3
1 0 0
1 1 1
1 2 3
2 0 0
2 1 3
2 2 1
2 14 41 0 9
0 0 3
0 1 1
0 2 0
1 0 1
1 1 1
1 2 0
2 0 0
2 1 3
2 2 0
2 13 19 0 9
0 0 0
0 1 1
0 2 0
1 0 1
1 1 3
1 2 3
2 0 3
2 1 0
2 2 0
2 39 49 0 9
0 0 2
0 1 0
0 2 0
1 0 3
1 1 2
1 2 0
2 0 2
2 1 1
2 2 0
2 21 32 0 9
0 0 0
0 1 1
0 2 0
1 0 0
1 1 1
1 2 3
2 0 0
2 1 3
2 2 1
2 5 17 0 9
0 0 0
0 1 3
0 2 3
1 0 3
1 1 2
1 2 0
2 0 0
2 1 3
2 2 0
2 37 44 0 9
0 0 0
0 1 1
0 2 3
1 0 0
1 1 2
1 2 0
2 0 1
2 1 0
2 2 3
2 17 28 0 9
0 0 2
0 1 0
0 2 0
1 0 3
1 1 2
1 2 0
2 0 3
2 1 1
2 2 0
2 2 46 0 9
0 0 0
0 1 2
0 2 1
1 0 1
1 1 0
1 2 2
2 0 0
2 1 0
2 2 1
2 17 26 0 9
0 0 0
0 1 2
0 2 0
1 0 0
1 1 1
1 2 3
2 0 1
2 1 0
2 2 1
2 17 40 0 9
0 0 0
0 1 0
0 2 2
1 0 0
1 1 2
1 2 1
2 0 1
2 1 0
2 2 2
2 30 35 0 9
0 0 1
0 1 2
0 2 2
1 0 0
1 1 3
1 2 0
2 0 0
2 1 0
2 2 3
2 46 49 0 9
0 0 1
0 1 0
0 2 0
1 0 2
1 1 2
1 2 0
2 0 3
2 1 0
2 2 3
2 42 49 0 9
0 0 0
0 1 1
0 2 3
1 0 0
1 1 3
1 2 0
2 0 3
2 1 2
2 2 0
2 0 44 0 9
0 0 0
0 1 1
0 2 1
1 0 3
1 1 0
1 2 0
2 0 3
2 1 3
2 2 0
2 5 15 0 9
0 0 0
0 1 3
0 2 0
1 0 2
1 1 0
1 2 0
2 0 2
2 1 2
2 2 3
2 30 45 0 9
0 0 0
0 1 1
0 2 0
1 0 3
1 1 1
1 2 0
2 0 2
2 1 0
2 2 3
2 13 39 0 9
0 0 0
0 1 1
0 2 0
1 0 2
1 1 2
1 2 0
2 0 0
2 1 1
2 2 3
2 39 46 0 9
0 0 0
0 1 1
0 2 3
1 0 0
1 1 1
1 2 2
2 0 0
2 1 1
2 2 0
2 10 28 0 9
0 0 1
0 1 1
0 2 0
1 0 3
1 1 0
1 2 2
2 0 0
2 1 0
2 2 2
2 28 43 0 9
0 0 1
0 1 0
0 2 0
1 0 3
1 1 0
1 2 0
2 0 1
2 1 2
2 2 3
2 2 39 0 9
0 0 1
0 1 0
0 2 0
1 0 3
1 1 3
1 2 1
2 0 3
2 1 0
2 2 0
2 11 38 0 9
0 0 0
0 1 1
0 2 0
1 0 3
1 1 2
1 2 1
2 0 0
2 1 1
2 2 0
2 16 35 0 9
0 0 0
0 1 0
0 2 2
1 0 1
1 1 0
1 2 3
2 0 2
2 1 2
2 2 0
2 18 31 0 9
0 0 3
0 1 0
0 2 0
1 0 1
1 1 0
1 2 2
2 0 3
2 1 3
2 2 0
2 35 43 0 9
0 0 0
0 1 1
0 2 3
1 0 0
1 1 0
1 2 1
2 0 2
2 1 1
2 2 0
2 25 35 0 9
0 0 0
0 1 1
0 2 1
1 0 2
1 1 3
1 2 2
2 0 0
2 1 0
2 2 0
2 11 46 0 9
0 0 0
0 1 2
0 2 1
1 0 0
1 1 1
1 2 0
2 0 2
2 1 1
2 2 0
2 15 27 0 9
0 0 3
0 1 2
0 2 0
1 0 3
1 1 0
1 2 0
2 0 2
2 1 0
2 2 3
2 3 34 0 9
0 0 0
0 1 2
0 2 0
1 0 1
1 1 3
1 2 1
2 0 2
2 1 0
2 2 0
2 40 43 0 9
0 0 0
0 1 0
0 2 2
1 0 2
1 1 2
1 2 1
2 0 0
2 1 0
2 2 1
2 14 37 0 9
0 0 3
0 1 0
0 2 3
1 0 0
1 1 2
1 2 1
2 0 2
2 1 0
2 2 0
2 9 13 0 9
0 0 1
0 1 3
0 2 0
1 0 2
1 1 0
1 2 1
2 0 0
2 1 0
2 2 3
2 10 17 0 9
0 0 3
0 1 3
0 2 0
1 0 2
1 1 0
1 2 1
2 0 0
2 1 2
2 2 0
2 26 37 0 9
0 0 1
0 1 0
0 2 2
1 0 1
1 1 3
1 2 0
2 0 3
2 1 0
2 2 0
2 22 23 0 9
0 0 1
0 1 0
0 2 0
1 0 2
1 1 2
1 2 1
2 0 0
2 1 0
2 2 2
2 1 25 0 9
0 0 1
0 1 0
0 2 0
1 0 1
1 1 1
1 2 0
2 0 2
2 1 0
2 2 1
2 15 30 0 9
0 0 1
0 1 0
0 2 3
1 0 3
1 1 0
1 2 2
2 0 0
2 1 2
2 2 0
2 6 40 0 9
0 0 0
0 1 1
0 2 0
1 0 2
1 1 0
1 2 2
2 0 1
2 1 0
2 2 3
2 31 48 0 9
0 0 2
0 1 3
0 2 2
1 0 0
1 1 0
1 2 2
2 0 0
2 1 0
2 2 1
2 29 34 0 9
0 0 1
0 1 0
0 2 3
1 0 0
1 1 1
1 2 2
2 0 0
2 1 3
2 2 0
2 45 46 0 9
0 0 3
0 1 0
0 2 2
1 0 0
1 1 0
1 2 1
2 0 3
2 1 0
2 2 2
2 3 12 0 9
0 0 3
0 1 1
0 2 0
1 0 1
1 1 0
1 2 0
2 0 2
2 1 0
2 2 2
2 2 19 0 9
0 0 0
0 1 0
0 2 1
1 0 0
1 1 0
1 2 3
2 0 3
2 1 2
2 2 2
2 8 25 0 9
0 0 0
0 1 2
0 2 0
1 0 3
1 1 0
1 2 2
2 0 0
2 1 3
2 2 3
2 8 33 0 9
0 0 0
0 1 1
0 2 3
1 0 0
1 1 0
1 2 1
2 0 3
2 1 0
2 2 3
2 13 18 0 9
0 0 0
0 1 3
0 2 1
1 0 3
1 1 0
1 2 0
2 0 3
2 1 0
2 2 3
2 21 41 0 9
0 0 0
0 1 2
0 2 3
1 0 0
1 1 0
1 2 2
2 0 3
2 1 0
2 2 3
2 20 39 0 9
0 0 3
0 1 0
0 2 0
1 0 1
1 1 3
1 2 1
2 0 0
2 1 2
2 2 0
2 7 29 0 9
0 0 3
0 1 2
0 2 0
1 0 0
1 1 0
1 2 3
2 0 0
2 1 3
2 2 1
2 37 42 0 9
0 0 1
0 1 0
0 2 0
1 0 1
1 1 0
1 2 2
2 0 3
2 1 2
2 2 0
2 16 22 0 9
0 0 2
0 1 2
0 2 0
1 0 1
1 1 3
1 2 0
2 0 0
2 1 1
2 2 0
2 27 32 0 9
0 0 0
0 1 0
0 2 0
1 0 3
1 1 1
1 2 0
2 0 2
2 1 1
2 2 2
2 20 29 0 9
0 0 0
0 1 1
0 2 3
1 0 1
1 1 2
1 2 2
2 0 0
2 1 0
2 2 0
2 32 42 0 9
0 0 1
0 1 2
0 2 0
1 0 1
1 1 2
1 2 0
2 0 2
2 1 0
2 2 0
2 18 33 0 9
0 0 3
0 1 0
0 2 2
1 0 0
1 1 3
1 2 1
2 0 0
2 1 1
2 2 0
2 3 42 0 9
0 0 0
0 1 2
0 2 2
1 0 0
1 1 1
1 2 1
2 0 1
2 1 0
2 2 0
2 11 32 0 9
0 0 0
0 1 2
0 2 3
1 0 3
1 1 0
1 2 2
2 0 0
2 1 3
2 2 0
2 30 34 0 9
0 0 0
0 1 0
0 2 0
1 0 0
1 1 2
1 2 1
2 0 3
2 1 2
2 2 2
2 15 39 0 9
0 0 0
0 1 0
0 2 0
1 0 1
1 1 2
1 2 3
2 0 0
2 1 3
2 2 3
2 27 47 0 9
0 0 1
0 1 2
0 2 0
1 0 1
1 1 0
1 2 2
2 0 0
2 1 0
2 2 2
2 13 24 0 9
0 0 3
0 1 3
0 2 0
1 0 3
1 1 3
1 2 3
2 0 0
2 1 0
2 2 0
2 2 21 0 9
0 0 0
0 1 3
0 2 2
1 0 2
1 1 0
1 2 0
2 0 2
2 1 0
2 2 3
2 7 21 0 9
0 0 2
0 1 0
0 2 3
1 0 2
1 1 2
1 2 0
2 0 0
2 1 0
2 2 2
2 6 14 0 9
0 0 0
0 1 1
0 2 3
1 0 2
1 1 0
1 2 0
2 0 0
2 1 3
2 2 3
2 8 15 0 9
0 0 0
0 1 3
0 2 0
1 0 0
1 1 3
1 2 2
2 0 1
2 1 0
2 2 1
2 2 17 0 9
0 0 0
0 1 0
0 2 0
1 0 0
1 1 2
1 2 1
2 0 3
2 1 3
2 2 1
2 7 15 0 9
0 0 2
0 1 2
0 2 0
1 0 0
1 1 1
1 2 2
2 0 0
2 1 0
2 2 2
2 18 37 0 9
0 0 3
0 1 0
0 2 2
1 0 2
1 1 0
1 2 0
2 0 1
2 1 3
2 2 0
2 31 49 0 9
0 0 0
0 1 1
0 2 0
1 0 2
1 1 0
1 2 0
2 0 2
2 1 1
2 2 2
2 22 31 0 9
0 0 0
0 1 2
0 2 2
1 0 3
1 1 0
1 2 3
2 0 3
2 1 0
2 2 0
2 29 38 0 9
0 0 0
0 1 1
0 2 0
1 0 0
1 1 3
1 2 3
2 0 0
2 1 1
2 2 3
2 3 49 0 9
0 0 0
0 1 0
0 2 3
1 0 1
1 1 0
1 2 0
2 0 3
2 1 2
2 2 1
2 7 14 0 9
0 0 0
0 1 0
0 2 2
1 0 2
1 1 1
1 2 0
2 0 1
2 1 0
2 2 3
2 16 38 0 9
0 0 0
0 1 1
0 2 2
1 0 3
1 1 0
1 2 0
2 0 0
2 1 3
2 2 3
2 11 29 0 9
0 0 2
0 1 3
0 2 0
1 0 2
1 1 0
1 2 2
2 0 0
2 1 2
2 2 0
2 22 46 0 9
0 0 0
0 1 1
0 2 3
1 0 0
1 1 2
1 2 0
2 0 0
2 1 2
2 2 1
2 39 45 0 9
0 0 0
0 1 3
0 2 3
1 0 2
1 1 2
1 2 0
2 0 0
2 1 0
2 2 1
2 7 44 0 9
0 0 0
0 1 3
0 2 2
1 0 0
1 1 3
1 2 0
2 0 1
2 1 0
2 2 1
2 21 30 0 9
0 0 0
0 1 2
0 2 0
1 0 2
1 1 0
1 2 0
2 0 3
2 1 1
2 2 1
2 1 7 0 9
0 0 1
0 1 3
0 2 1
1 0 0
1 1 0
1 2 0
2 0 1
2 1 2
2 2 0
2 16 29 0 9
0 0 0
0 1 1
0 2 0
1 0 1
1 1 2
1 2 0
2 0 2
2 1 2
2 2 0
2 34 48 0 9
0 0 3
0 1 1
0 2 1
1 0 0
1 1 0
1 2 0
2 0 2
2 1 3
2 2 0
2 7 31 0 9
0 0 1
0 1 1
0 2 0
1 0 0
1 1 0
1 2 1
2 0 0
2 1 2
2 2 1
2 13 16 0 9
0 0 1
0 1 1
0 2 0
1 0 3
1 1 0
1 2 0
2 0 1
2 1 2
2 2 0
2 10 31 0 9
0 0 3
0 1 0
0 2 0
1 0 0
1 1 0
1 2 3
2 0 1
2 1 1
2 2 3
2 29 45 0 9
0 0 0
0 1 2
0 2 2
1 0 0
1 1 3
1 2 0
2 0 1
2 1 2
2 2 0
2 2 18 0 9
0 0 0
0 1 2
0 2 0
1 0 0
1 1 0
1 2 3
2 0 3
2 1 2
2 2 3
2 8 19 0 9
0 0 1
0 1 0
0 2 1
1 0 0
1 1 0
1 2 2
2 0 3
2 1 0
2 2 1
2 20 37 0 9
0 0 1
0 1 3
0 2 0
1 0 0
1 1 3
1 2 0
2 0 3
2 1 0
2 2 2
2 33 49 0 9
0 0 0
0 1 0
0 2 2
1 0 2
1 1 3
1 2 0
2 0 0
2 1 3
2 2 2
2 0 33 0 9
0 0 1
0 1 3
0 2 1
1 0 0
1 1 0
1 2 1
2 0 0
2 1 0
2 2 3
2 18 42 0 9
0 0 0
0 1 1
0 2 3
1 0 1
1 1 1
1 2 3
2 0 0
2 1 0
2 2 0
2 2 4 0 9
0 0 1
0 1 2
0 2 0
1 0 3
1 1 0
1 2 0
2 0 0
2 1 2
2 2 1
2 25 30 0 9
0 0 0
0 1 0
0 2 1
1 0 2
1 1 2
1 2 1
2 0 0
2 1 0
2 2 3
2 29 41 0 9
0 0 3
0 1 1
0 2 1
1 0 0
1 1 0
1 2 3
2 0 0
2 1 0
2 2 2
2 36 45 0 9
0 0 1
0 1 2
0 2 0
1 0 1
1 1 0
1 2 0
2 0 1
2 1 2
2 2 0
2 3 5 0 9
0 0 0
0 1 0
0 2 2
1 0 1
1 1 0
1 2 0
2 0 2
2 1 3
2 2 2
2 16 36 0 9
0 0 1
0 1 2
0 2 0
1 0 1
1 1 3
1 2 2
2 0 0
2 1 0
2 2 0
2 4 5 0 9
0 0 2
0 1 0
0 2 0
1 0 1
1 1 3
1 2 3
2 0 0
2 1 0
2 2 1
2 25 27 0 9
0 0 1
0 1 2
0 2 0
1 0 0
1 1 0
1 2 0
2 0 2
2 1 3
2 2 1
2 17 37 0 9
0 0 3
0 1 0
0 2 2
1 0 0
1 1 2
1 2 3
2 0 0
2 1 0
2 2 2
2 8 44 0 9
0 0 0
0 1 3
0 2 0
1 0 0
1 1 0
1 2 1
2 0 1
2 1 2
2 2 2
2 2 37 0 9
0 0 1
0 1 0
0 2 3
1 0 0
1 1 0
1 2 0
2 0 3
2 1 3
2 2 2
2 6 23 0 9
0 0 1
0 1 3
0 2 0
1 0 0
1 1 3
1 2 1
2 0 0
2 1 2
2 2 0
2 28 48 0 9
0 0 0
0 1 2
0 2 3
1 0 2
1 1 0
1 2 3
2 0 0
2 1 0
2 2 2
2 5 40 0 9
0 0 0
0 1 0
0 2 3
1 0 1
1 1 0
1 2 2
2 0 0
2 1 1
2 2 1
2 18 32 0 9
0 0 0
0 1 0
0 2 3
1 0 1
1 1 2
1 2 3
2 0 1
2 1 0
2 2 0
2 6 45 0 9
0 0 0
0 1 2
0 2 0
1 0 0
1 1 1
1 2 3
2 0 2
2 1 2
2 2 0
2 13 49 0 9
0 0 0
0 1 2
0 2 2
1 0 0
1 1 3
1 2 2
2 0 0
2 1 3
2 2 0
2 3 4 0 9
0 0 0
0 1 3
0 2 0
1 0 2
1 1 0
1 2 0
2 0 2
2 1 1
2 2 1
2 47 48 0 9
0 0 0
0 1 0
0 2 0
1 0 1
1 1 3
1 2 0
2 0 1
2 1 3
2 2 3
2 1 32 0 9
0 0 1
0 1 1
0 2 3
1 0 0
1 1 2
1 2 0
2 0 2
2 1 0
2 2 0
2 14 26 0 9
0 0 2
0 1 0
0 2 3
1 0 2
1 1 0
1 2 3
2 0 0
2 1 0
2 2 3
2 6 38 0 9
0 0 1
0 1 1
0 2 3
1 0 0
1 1 3
1 2 0
2 0 3
2 1 0
2 2 0
2 14 32 0 9
0 0 2
0 1 1
0 2 0
1 0 0
1 1 2
1 2 3
2 0 0
2 1 2
2 2 0
2 35 38 0 9
0 0 3
0 1 0
0 2 1
1 0 0
1 1 2
1 2 0
2 0 1
2 1 0
2 2 2
1 0 512409557603043100 3
0 0
1 2
2 3
1 1 512409557603043100 3
0 1
1 0
2 1
1 2 512409557603043100 3
0 0
1 1
2 1
1 3 512409557603043100 3
0 2
1 0
2 2
1 4 512409557603043100 3
0 1
1 0
2 1
1 5 512409557603043100 3
0 0
1 0
2 2
1 6 512409557603043100 3
0 2
1 1
2 0
1 7 512409557603043100 3
0 0
1 2
2 0
1 8 512409557603043100 3
0 1
1 0
2 1
1 9 512409557603043100 3
0 1
1 0
2 2
1 10 512409557603043100 3
0 1
1 0
2 0
1 11 512409557603043100 3
0 0
1 2
2 3
1 12 512409557603043100 3
0 3
1 0
2 1
1 13 512409557603043100 3
0 1
1 3
2 0
1 14 512409557603043100 3
0 1
1 2
2 0
1 15 512409557603043100 3
0 1
1 2
2 0
1 16 512409557603043100 3
0 0
1 2
2 2
1 17 512409557603043100 3
0 1
1 1
2 0
1 18 512409557603043100 3
0 0
1 2
2 0
1 19 512409557603043100 3
0 2
1 0
2 3
1 20 512409557603043100 3
0 1
1 0
2 1
1 21 512409557603043100 3
0 1
1 0
2 2
1 22 512409557603043100 3
0 0
1 0
2 2
1 23 512409557603043100 3
0 0
1 0
2 3
1 24 512409557603043100 3
0 1
1 2
2 0
1 25 512409557603043100 3
0 1
1 0
2 1
1 26 512409557603043100 3
0 1
1 2
2 0
1 27 512409557603043100 3
0 0
1 2
2 3
1 28 512409557603043100 3
0 0
1 0
2 1
1 29 512409557603043100 3
0 1
1 0
2 3
1 30 512409557603043100 3
0 0
1 1
2 3
1 31 512409557603043100 3
0 0
1 1
2 0
1 32 512409557603043100 3
0 0
1 2
2 1
1 33 512409557603043100 3
0 2
1 1
2 0
1 34 512409557603043100 3
0 3
1 1
2 0
1 35 512409557603043100 3
0 2
1 0
2 0
1 36 512409557603043100 3
0 0
1 0
2 0
1 37 512409557603043100 3
0 0
1 0
2 0
1 38 512409557603043100 3
0 3
1 2
2 0
1 39 512409557603043100 3
0 0
1 0
2 0
1 40 512409557603043100 3
0 0
1 0
2 0
1 41 512409557603043100 3
0 2
1 0
2 1
1 42 512409557603043100 3
0 3
1 2
2 0
1 43 512409557603043100 3
0 1
1 0
2 0
1 44 512409557603043100 3
0 0
1 0
2 0
1 45 512409557603043100 3
0 0
1 1
2 1
1 46 512409557603043100 3
0 1
1 0
2 1
1 47 512409557603043100 3
0 0
1 3
2 1
1 48 512409557603043100 3
0 1
1 0
2 1
1 49 512409557603043100 3
0 0
1 3
2 0
0 27 0
